Version identifier: 12.10.0.0 | 2019-11-26 | 843d4de
CPXPARAM_WorkMem                                 28672
Tried aggregator 2 times.
Aggregator did 75 substitutions.
Reduced MIP has 319 rows, 360 columns, and 1480 nonzeros.
Reduced MIP has 360 binaries, 0 generals, 0 SOSs, and 0 indicators.
Presolve time = 0,00 sec. (1,44 ticks)
Found incumbent of value 7080,000000 after 0,00 sec. (2,36 ticks)
Probing time = 0,00 sec. (0,71 ticks)
Tried aggregator 1 time.
Detecting symmetries...
MIP Presolve eliminated 68 rows and 0 columns.
MIP Presolve added 136 rows and 0 columns.
Reduced MIP has 387 rows, 360 columns, and 1548 nonzeros.
Reduced MIP has 360 binaries, 0 generals, 0 SOSs, and 0 indicators.
Presolve time = 0,00 sec. (1,84 ticks)
Probing time = 0,00 sec. (0,70 ticks)
Clique table members: 1075.
MIP emphasis: balance optimality and feasibility.
MIP search method: dynamic search.
Parallel mode: deterministic, using up to 16 threads.
Root relaxation solution time = 0,00 sec. (1,97 ticks)

        Nodes                                         Cuts/
   Node  Left     Objective  IInf  Best Integer    Best Bound    ItCnt     Gap

*     0+    0                         7080,0000        0,0000           100,00%
*     0+    0                         4702,0000        0,0000           100,00%
      0     0     1770,0000   360     4702,0000     1770,0000      140   62,36%
      0     0     1792,2394   360     4702,0000      Cuts: 10      203   61,88%
      0     0     1806,3336   360     4702,0000     Cuts: 196      231   61,58%
*     0+    0                         4636,0000     1806,3336            61,04%
      0     0     1814,3039   360     4636,0000       Cuts: 6      269   60,86%
      0     0     1815,7574   360     4636,0000     Cuts: 196      289   60,83%
      0     0     1819,5948   360     4636,0000       Cuts: 5      313   60,75%
      0     0     1820,6682   360     4636,0000     Cuts: 117      322   60,73%
      0     0     1821,2457   360     4636,0000       Cuts: 3      336   60,72%
      0     0     1821,4754   360     4636,0000      Cuts: 27      340   60,71%
*     0+    0                         4571,0000     1821,4754            60,15%
*     0+    0                         4260,0000     1821,4754            57,24%
      0     2     1821,4754   359     4260,0000     1832,3670      340   56,99%
Elapsed time = 0,20 sec. (106,00 ticks, tree = 0,02 MB, solutions = 5)
   1529   785     3749,9820   137     4260,0000     2327,6213    63429   45,36%
   1600   659    infeasible           4260,0000     2327,6213    51264   45,36%
   2503  1355     3388,2216   232     4260,0000     2664,9566   102228   37,44%
*  4652+ 2449                         4240,0000     3070,2607            27,59%
   4754  2602     3990,9683   143     4240,0000     3070,2607   183165   27,59%

Performing restart 1

Repeating presolve.
Tried aggregator 1 time.
Reduced MIP has 387 rows, 360 columns, and 1548 nonzeros.
Reduced MIP has 360 binaries, 0 generals, 0 SOSs, and 0 indicators.
Presolve time = 0,00 sec. (0,95 ticks)
Tried aggregator 1 time.
Reduced MIP has 387 rows, 360 columns, and 1548 nonzeros.
Reduced MIP has 360 binaries, 0 generals, 0 SOSs, and 0 indicators.
Presolve time = 0,00 sec. (1,27 ticks)
Represolve time = 0,01 sec. (7,88 ticks)
   4809     0     1837,3991   359     4240,0000      Fract: 6   215128   25,58%
   4809     0     1851,9129   359     4240,0000       Cuts: 7   215184   25,58%
   4809     0     1863,4869   359     4240,0000      Fract: 4   215233   25,58%
   4809     0     1873,8861   359     4240,0000       Cuts: 5   215296   25,58%
   4809     0     1904,3532   359     4240,0000     Fract: 11   215423   25,58%
   4809     2     1904,3532   359     4240,0000     3155,5734   215423   25,58%
   4848    23     2671,9682   234     4240,0000     3155,5734   218153   25,58%
   5461   388     3854,6759   167     4240,0000     3155,5734   257512   25,58%
   6370   925     3462,7967   255     4240,0000     3155,5734   288203   25,58%
   7677  2229     3776,7700   227     4240,0000     3155,5734   340287   25,58%

Performing restart 2

Repeating presolve.
Tried aggregator 1 time.
Reduced MIP has 387 rows, 360 columns, and 1548 nonzeros.
Reduced MIP has 360 binaries, 0 generals, 0 SOSs, and 0 indicators.
Presolve time = 0,00 sec. (0,95 ticks)
Tried aggregator 1 time.
Reduced MIP has 387 rows, 360 columns, and 1548 nonzeros.
Reduced MIP has 360 binaries, 0 generals, 0 SOSs, and 0 indicators.
Presolve time = 0,00 sec. (1,27 ticks)
Represolve time = 0,03 sec. (18,73 ticks)
  10879     0     1919,1682   360     4240,0000       Cuts: 4   477440   25,58%
  10879     0     1930,9336   360     4240,0000      Fract: 3   477486   25,58%
  10879     0     1938,5535   360     4240,0000      Fract: 5   477543   25,58%
  10879     0     1959,5927   360     4240,0000      Fract: 8   477624   25,58%
  10879     0     1966,3081   360     4240,0000      Fract: 9   477690   25,58%
  10879     0     1969,8804   360     4240,0000       Cuts: 7   477733   25,58%
  10879     2     1969,8804   357     4240,0000     3155,5734   477733   25,58%
Elapsed time = 4,47 sec. (3547,34 ticks, tree = 0,02 MB, solutions = 6)
  15556  2645     4038,1812   178     4240,0000     3346,7458   749028   21,07%
* 17028+ 3336                         4232,0000     3441,0067            18,69%
  22104  5369     4164,4840   138     4232,0000     3684,2613  1084056   12,94%
* 28827+ 7005                         4219,0000     3864,7754             8,40%
  29052  7005     4068,1930   185     4219,0000     3877,1466  1389951    8,10%
* 32071+ 6803                         4218,0000     3940,1256             6,59%
* 34833  5741      integral     0     4215,0000     3993,5708  1682884    5,25%
  34861  5603        cutoff           4215,0000     3993,5708  1694349    5,25%
* 34898  5595      integral     0     4213,0000     3993,5708  1694995    5,21%
* 34984  5642      integral     0     4206,0000     4029,6078  1691197    4,19%

Clique cuts applied:  47
Cover cuts applied:  750
Flow cuts applied:  6
Mixed integer rounding cuts applied:  67
Zero-half cuts applied:  4
Lift and project cuts applied:  3
Gomory fractional cuts applied:  48

Root node processing (before b&c):
  Real time             =    0,20 sec. (105,64 ticks)
Parallel b&c, 16 threads:
  Real time             =   10,14 sec. (7658,33 ticks)
  Sync time (average)   =    2,83 sec.
  Wait time (average)   =    0,01 sec.
                          ------------
Total (root+branch&cut) =   10,34 sec. (7763,96 ticks)
